Version identifier: 12.10.0.0 | 2019-11-26 | 843d4de
CPXPARAM_WorkMem                                 28672
Tried aggregator 2 times.
Aggregator did 75 substitutions.
Reduced MIP has 319 rows, 360 columns, and 1504 nonzeros.
Reduced MIP has 360 binaries, 0 generals, 0 SOSs, and 0 indicators.
Presolve time = 0,00 sec. (1,46 ticks)
Found incumbent of value 1612,000000 after 0,01 sec. (2,41 ticks)
Probing time = 0,00 sec. (0,73 ticks)
Tried aggregator 1 time.
Detecting symmetries...
MIP Presolve eliminated 76 rows and 0 columns.
MIP Presolve added 152 rows and 0 columns.
Reduced MIP has 395 rows, 360 columns, and 1580 nonzeros.
Reduced MIP has 360 binaries, 0 generals, 0 SOSs, and 0 indicators.
Presolve time = 0,00 sec. (1,88 ticks)
Probing time = 0,00 sec. (0,71 ticks)
Clique table members: 1099.
MIP emphasis: balance optimality and feasibility.
MIP search method: dynamic search.
Parallel mode: deterministic, using up to 16 threads.
Root relaxation solution time = 0,01 sec. (2,30 ticks)

        Nodes                                         Cuts/
   Node  Left     Objective  IInf  Best Integer    Best Bound    ItCnt     Gap

*     0+    0                         1612,0000        0,0000           100,00%
*     0+    0                          980,0000        0,0000           100,00%
      0     0      403,0000   356      980,0000      403,0000      165   58,88%
      0     0      408,0326   356      980,0000      Cuts: 54      207   58,36%
      0     0      414,7962   356      980,0000     Cuts: 198      256   57,67%
      0     0      416,8844   356      980,0000     Cuts: 172      288   57,46%
      0     0      417,1446   356      980,0000      Cuts: 11      304   57,43%
      0     0      417,1849   356      980,0000   ZeroHalf: 3      308   57,43%
      0     0      417,3065   356      980,0000       Cuts: 2      318   57,42%
*     0+    0                          890,0000      417,3065            53,11%
      0     2      417,3065   358      890,0000      417,3065      318   53,11%
Elapsed time = 0,16 sec. (79,45 ticks, tree = 0,02 MB, solutions = 3)
*  1491+  784                          888,0000      615,0915            30,73%
   2098  1225      813,2396   101      888,0000      629,5648    72757   29,10%
   3213  1290      842,8583    33      888,0000      674,6043    76053   24,03%

Performing restart 1

Repeating presolve.
Tried aggregator 1 time.
Reduced MIP has 395 rows, 360 columns, and 1580 nonzeros.
Reduced MIP has 360 binaries, 0 generals, 0 SOSs, and 0 indicators.
Presolve time = 0,00 sec. (0,97 ticks)
Tried aggregator 1 time.
Reduced MIP has 395 rows, 360 columns, and 1580 nonzeros.
Reduced MIP has 360 binaries, 0 generals, 0 SOSs, and 0 indicators.
Presolve time = 0,00 sec. (1,30 ticks)
Represolve time = 0,01 sec. (9,66 ticks)
   4667     0      425,1658   358      888,0000      Cuts: 10   163841   20,99%
   4667     0      428,5015   358      888,0000      Cuts: 14   163893   20,99%
   4667     0      431,9691   358      888,0000      Cuts: 11   163955   20,99%
   4667     0      433,6278   358      888,0000       Cuts: 9   164012   20,99%
   4667     0      435,4391   358      888,0000      Cuts: 16   164077   20,99%
   4667     2      435,4391   356      888,0000      701,5865   164077   20,99%
   4680     5      450,6329   354      888,0000      701,5865   165038   20,99%
   6022   824      729,2934   294      888,0000      701,5865   213226   20,99%
   7068  1528      612,2760   332      888,0000      701,5865   258292   20,99%
   7781  2254      850,9789   184      888,0000      701,5865   314940   20,99%
   8604  2851      820,6345   209      888,0000      701,5865   380587   20,99%
   9246  3271      692,7856   290      888,0000      701,5865   436921   20,99%

Performing restart 2

Repeating presolve.
Tried aggregator 1 time.
Reduced MIP has 395 rows, 360 columns, and 1580 nonzeros.
Reduced MIP has 360 binaries, 0 generals, 0 SOSs, and 0 indicators.
Presolve time = 0,00 sec. (0,97 ticks)
Tried aggregator 1 time.
Reduced MIP has 395 rows, 360 columns, and 1580 nonzeros.
Reduced MIP has 360 binaries, 0 generals, 0 SOSs, and 0 indicators.
Presolve time = 0,00 sec. (1,30 ticks)
Represolve time = 0,03 sec. (17,69 ticks)
  10480     0      442,8018   356      888,0000      Cuts: 11   545218   20,99%
  10480     0      443,2123   356      888,0000       Cuts: 8   545260   20,99%
  10480     0      443,4631   356      888,0000       Cuts: 4   545286   20,99%
  10480     0      446,8619   356      888,0000       Cuts: 6   545363   20,99%
  10480     0      447,0353   356      888,0000       Cuts: 8   545391   20,99%
  10480     0      450,7599   356      888,0000       Cuts: 6   545493   20,99%
  10480     0      452,7399   356      888,0000      Cuts: 13   545602   20,99%
  10480     2      452,7399   354      888,0000      701,5865   545602   20,99%
Elapsed time = 4,29 sec. (3660,45 ticks, tree = 0,02 MB, solutions = 4)
  16817  2713      845,1399    52      888,0000      778,1781   832495   12,37%
* 18425  2946      integral     0      887,0000      804,9456   894222    9,25%
* 19416  2792      integral     0      885,0000      819,9077   940072    7,36%
* 20460+ 2376                          883,0000      832,1353             5,76%

Clique cuts applied:  10
Cover cuts applied:  727
Flow cuts applied:  11
Mixed integer rounding cuts applied:  41
Zero-half cuts applied:  4
Lift and project cuts applied:  9
Gomory fractional cuts applied:  54

Root node processing (before b&c):
  Real time             =    0,15 sec. (79,09 ticks)
Parallel b&c, 16 threads:
  Real time             =    6,62 sec. (5400,18 ticks)
  Sync time (average)   =    1,74 sec.
  Wait time (average)   =    0,01 sec.
                          ------------
Total (root+branch&cut) =    6,78 sec. (5479,26 ticks)
